# Solution for model r5_t18_m0_0
# Finished Task: 18 / 18
# Makespan: 591.0, Total Distance: 1006.0, Total Time: 0.1741
# R O S F
0 0 7 0.0 0.0
1 1 6 0.0 0.0
2 2 19 0.0 0.0
3 3 5 0.0 0.0
4 4 11 0.0 0.0
5 3 8 27.0 61.0
6 1 14 349.0 376.0
7 0 13 231.0 260.0
8 3 22 91.0 116.0
9 2 -1 462.0 487.0
10 3 15 414.0 452.0
11 4 17 138.0 167.0
12 4 18 402.0 423.0
13 0 16 364.0 384.0
14 1 -1 430.0 463.0
15 3 -1 471.0 492.0
16 0 20 474.0 499.0
17 4 12 281.0 307.0
18 4 -1 466.0 492.0
19 2 21 200.0 238.0
20 0 -1 552.0 591.0
21 2 9 366.0 392.0
22 3 10 228.0 265.0
